80 9443351
52 2 27 58 63 26 37 74 48 22 12 62 40 70 71 64 30 50 9 4 43 24 41 34 35 76 67 36 79 65 11 16 73 47 6 42 14 45 38 15 51 39 69 8 17 59 57 20 25 72 78 28 19 77 18 68 33 60 55 54 1 10 13 29 23 75 5 31 53 7 21 61 80 56 32 3 46 44 49 66 
